c 0.0009891986846923828 (encode time in sec)
p cnf 66 66
1 2 0
-1 2 0
3 4 0
-3 4 0
5 6 0
-5 6 0
7 3 1 8 0
7 3 -1 12 0
7 -3 1 9 0
7 -3 -1 11 0
-7 3 1 10 0
-7 3 -1 13 0
-7 -3 1 14 0
-7 -3 -1 15 0
16 5 17 0
16 -5 18 0
-16 5 18 0
-16 -5 17 0
19 16 20 0
19 -16 21 0
-19 16 21 0
-19 -16 20 0
22 19 23 0
22 -19 24 0
-22 19 24 0
-22 -19 23 0
25 7 19 26 0
25 7 -19 27 0
25 -7 19 29 0
25 -7 -19 28 0
-25 7 19 30 0
-25 7 -19 31 0
-25 -7 19 32 0
-25 -7 -19 33 0
34 22 25 1 5 35 0
34 22 25 1 -5 36 0
34 22 25 -1 5 55 0
34 22 25 -1 -5 38 0
34 22 -25 1 5 37 0
34 22 -25 1 -5 39 0
34 22 -25 -1 5 64 0
34 22 -25 -1 -5 40 0
34 -22 25 1 5 41 0
34 -22 25 1 -5 42 0
34 -22 25 -1 5 61 0
34 -22 25 -1 -5 43 0
34 -22 -25 1 5 54 0
34 -22 -25 1 -5 44 0
34 -22 -25 -1 5 59 0
34 -22 -25 -1 -5 45 0
-34 22 25 1 5 48 0
-34 22 25 1 -5 47 0
-34 22 25 -1 5 46 0
-34 22 25 -1 -5 63 0
-34 22 -25 1 5 65 0
-34 22 -25 1 -5 49 0
-34 22 -25 -1 5 60 0
-34 22 -25 -1 -5 51 0
-34 -22 25 1 5 62 0
-34 -22 25 1 -5 58 0
-34 -22 25 -1 5 52 0
-34 -22 25 -1 -5 50 0
-34 -22 -25 1 5 57 0
-34 -22 -25 1 -5 56 0
-34 -22 -25 -1 5 53 0
-34 -22 -25 -1 -5 66 0
